p cnf 91 377
7 42 45 46 60 83 -87 0
1 -42 45 60 83 -87 0
-4 52 -63 78 82 -84 0
7 8 9 -47 -48 64 0
12 13 57 58 -73 79 0
12 13 57 58 -73 -79 0
-15 29 -30 57 58 -73 0
-8 -42 45 46 -60 83 0
3 4 19 23 51 0
3 4 19 23 -68 0
-3 -16 -19 -68 91 0
-3 -16 -19 -89 91 0
11 12 -27 34 57 0
20 21 -72 -77 88 0
21 69 -72 -77 88 0
-38 41 53 -54 71 0
52 -61 -78 82 84 0
-16 -19 67 -68 91 0
-21 22 -69 -77 88 0
1 2 3 59 0
1 10 -60 83 0
-2 -5 -6 61 0
-3 -16 68 -89 0
4 5 63 78 0
4 5 -78 -84 0
7 9 -43 45 0
8 9 -47 55 0
8 -45 -48 55 0
-8 10 83 -88 0
-8 -18 -19 -64 0
10 26 -27 -34 0
11 12 26 -28 0
-11 -14 29 80 0
13 49 85 91 0
-14 -31 57 78 0
-17 -18 -19 -41 0
-17 22 -44 71 0
19 23 39 41 0
-19 -24 -27 -59 0
-19 25 65 80 0
-19 -51 -81 85 0
20 -54 71 -72 0
-20 -21 69 70 0
23 -32 56 59 0
24 25 32 -33 0
24 -32 -35 -61 0
25 74 75 80 0
-25 -33 -65 -80 0
-32 33 56 59 0
-35 36 37 82 0
-2 -5 -6 82 0
4 19 -51 68 0
4 19 -51 -91 0
4 23 -50 -91 0
-4 -19 -61 -84 0
-5 52 62 82 0
8 -46 -47 64 0
-8 42 60 -83 0
-8 -53 70 -88 0
10 20 22 -69 0
11 12 58 -80 0
13 49 -68 91 0
13 57 -68 -86 0
-18 -19 -47 -64 0
19 23 39 42 0
19 23 -76 -80 0
-19 51 67 91 0
-19 -81 85 91 0
-23 67 -68 91 0
24 32 56 61 0
29 -30 -31 -37 0
-36 -37 -63 78 0
52 -63 82 -84 0
57 58 78 79 0
1 2 3 0
1 2 6 0
1 3 42 0
1 -7 -60 0
1 24 59 0
-1 -10 -83 0
2 56 -61 0
2 -61 65 0
2 65 -74 0
-2 -65 -82 0
-3 16 50 0
-3 -16 68 0
4 5 -52 0
4 74 -82 0
-5 35 52 0
-6 -29 37 0
-7 -8 -42 0
-7 -8 -45 0
-8 -9 -46 0
-8 -39 -53 0
-8 45 48 0
-8 46 -64 0
-8 -83 87 0
9 40 46 0
-9 -40 43 0
10 21 -88 0
10 34 -57 0
-10 -24 27 0
11 -15 -31 0
11 -19 -34 0
-11 -15 76 0
-12 -78 -79 0
-13 -47 81 0
-13 -49 90 0
-13 -67 86 0
-13 68 -85 0
14 30 73 0
15 -29 30 0
15 -58 -76 0
-16 -49 -50 0
-16 -49 -89 0
-16 -50 89 0
17 19 45 0
17 39 40 0
17 44 -71 0
-17 -39 -40 0
-17 -44 77 0
18 38 39 0
-18 -39 -48 0
-18 47 -54 0
19 -36 74 0
-19 -26 -28 0
-19 -38 80 0
-19 -40 -43 0
-19 -51 81 0
-19 -60 -69 0
-19 86 -89 0
20 -54 -70 0
-20 70 72 0
-22 -41 53 0
-22 -53 -88 0
23 40 59 0
-23 25 30 0
-23 -41 -79 0
-23 -43 -87 0
-23 -48 -55 0
-23 -51 -89 0
-23 -56 -59 0
-23 79 -84 0
-23 81 -85 0
-23 81 91 0
-25 26 -59 0
-25 -26 -34 0
-25 -28 -33 0
-25 -76 -80 0
-26 57 -59 0
27 -31 57 0
28 -31 57 0
-28 31 34 0
-28 -31 57 0
29 73 82 0
32 33 56 0
32 -56 -61 0
-32 -56 61 0
-32 -56 -61 0
37 62 -63 0
39 48 55 0
40 43 87 0
40 45 55 0
-41 -54 72 0
46 64 -87 0
-46 47 -64 0
49 -68 -91 0
-49 -51 -68 0
50 66 89 0
-51 -81 -91 0
56 -61 82 0
58 76 -80 0
66 86 90 0
66 -86 -90 0
-66 -67 89 0
70 77 -88 0
-81 -85 -91 0
1 -7 0
1 10 0
1 -36 0
1 -59 0
1 60 0
1 -62 0
1 83 0
1 -87 0
1 88 0
-1 8 0
-1 24 0
-1 -30 0
-1 32 0
-1 -32 0
-1 -36 0
-1 78 0
2 56 0
2 59 0
2 61 0
-2 35 0
3 16 0
3 32 0
3 -50 0
3 -51 0
3 59 0
3 -62 0
3 -67 0
-3 -4 0
-3 28 0
-3 51 0
-3 61 0
-3 -68 0
-3 89 0
-3 90 0
-3 91 0
4 44 0
4 -52 0
4 -61 0
4 69 0
4 78 0
4 -78 0
4 -82 0
4 84 0
4 -84 0
4 85 0
4 89 0
4 -91 0
-4 -6 0
-4 52 0
5 -36 0
5 -41 0
5 -52 0
5 -62 0
5 78 0
5 -78 0
5 -82 0
-5 35 0
-5 65 0
-5 78 0
6 35 0
6 -36 0
6 -37 0
6 -62 0
6 -82 0
-6 -24 0
-6 65 0
-6 -74 0
7 8 0
7 -55 0
-7 42 0
-7 -46 0
-7 87 0
-7 -88 0
8 -60 0
8 61 0
8 -70 0
8 -88 0
-8 -10 0
-8 -19 0
-8 70 0
-8 88 0
9 51 0
9 64 0
-9 -45 0
10 12 0
10 21 0
10 -21 0
10 22 0
10 26 0
10 -33 0
10 -60 0
10 -70 0
10 -85 0
-10 -11 0
-10 -12 0
-10 59 0
-10 66 0
-10 -66 0
11 -12 0
11 14 0
11 15 0
11 80 0
-11 13 0
-11 30 0
-11 31 0
-11 -57 0
-11 -58 0
12 78 0
12 -78 0
12 80 0
-12 31 0
-12 -57 0
-12 -58 0
-12 73 0
-12 78 0
-12 79 0
-12 -82 0
-12 -90 0
13 -31 0
13 -78 0
13 85 0
13 86 0
13 -86 0
13 89 0
14 31 0
14 -57 0
14 -78 0
14 -79 0
-14 -19 0
-14 -73 0
-14 76 0
15 31 0
15 -57 0
-15 25 0
-15 58 0
-15 80 0
16 19 0
16 51 0
-16 -49 0
-16 67 0
-16 89 0
17 -44 0
-17 -77 0
-17 83 0
18 40 0
18 41 0
18 42 0
18 47 0
18 54 0
18 60 0
18 64 0
18 69 0
-18 -38 0
-18 -55 0
-18 81 0
19 -30 0
19 34 0
19 45 0
19 47 0
19 54 0
19 56 0
19 64 0
19 -75 0
19 81 0
19 85 0
19 -91 0
-19 25 0
-19 28 0
-19 36 0
-19 -48 0
-19 -74 0
-19 79 0
-19 -79 0
-19 -80 0
-19 81 0
-19 -86 0
20 21 0
20 -38 0
20 -70 0
-20 -22 0
-20 77 0
-20 -83 0
21 23 0
21 70 0
21 80 0
-21 42 0
-21 -72 0
22 41 0
22 53 0
22 -53 0
22 69 0
22 -77 0
-22 -53 0
-22 -71 0
-22 -88 0
23 26 0
23 27 0
23 28 0
23 -30 0
23 34 0
